p wcnf 154 596 9
1 -147 0
1 -148 0
1 -149 0
1 -150 0
1 151 0
1 152 0
1 153 0
1 154 0
9 1 2 0
9 -1 -2 0
9 3 4 0
9 -3 -4 0
9 5 6 0
9 -5 -6 0
9 7 8 0
9 -7 -8 0
9 9 10 0
9 -9 -10 0
9 11 12 0
9 -11 -12 0
9 13 14 0
9 -13 -14 0
9 -1 15 -22 0
9 -1 -15 22 0
9 -3 16 -23 0
9 -3 -16 23 0
9 -5 17 -24 0
9 -5 -17 24 0
9 -7 18 -25 0
9 -7 -18 25 0
9 -9 19 -26 0
9 -9 -19 26 0
9 -11 20 -27 0
9 -11 -20 27 0
9 -13 21 -28 0
9 -13 -21 28 0
9 -1 22 -29 0
9 -3 23 -30 0
9 -5 24 -31 0
9 -7 25 -32 0
9 -9 26 -33 0
9 -11 27 -34 0
9 -13 28 -35 0
9 -1 29 -36 0
9 -1 -29 36 0
9 -3 30 -37 0
9 -3 -30 37 0
9 -5 31 -38 0
9 -5 -31 38 0
9 -7 32 -39 0
9 -7 -32 39 0
9 -9 33 -40 0
9 -9 -33 40 0
9 -11 34 -41 0
9 -11 -34 41 0
9 -13 35 -42 0
9 -13 -35 42 0
9 -1 36 -43 0
9 -3 37 -44 0
9 -5 38 -45 0
9 -7 39 -46 0
9 -9 40 -47 0
9 -11 41 -48 0
9 -13 42 -49 0
9 -1 43 -50 0
9 -1 -43 50 0
9 -3 44 -51 0
9 -3 -44 51 0
9 -5 45 -52 0
9 -5 -45 52 0
9 -7 46 -53 0
9 -7 -46 53 0
9 -9 47 -54 0
9 -9 -47 54 0
9 -11 48 -55 0
9 -11 -48 55 0
9 -13 49 -56 0
9 -13 -49 56 0
9 -2 15 -22 0
9 -4 16 -23 0
9 -6 17 -24 0
9 -8 18 -25 0
9 -10 19 -26 0
9 -12 20 -27 0
9 -14 21 -28 0
9 -2 22 -43 0
9 -4 23 -44 0
9 -6 24 -45 0
9 -8 25 -46 0
9 -10 26 -47 0
9 -12 27 -48 0
9 -14 28 -49 0
9 -2 43 -50 0
9 -4 44 -51 0
9 -6 45 -52 0
9 -8 46 -53 0
9 -10 47 -54 0
9 -12 48 -55 0
9 -14 49 -56 0
9 -2 50 -29 0
9 -4 51 -30 0
9 -6 52 -31 0
9 -8 53 -32 0
9 -10 54 -33 0
9 -12 55 -34 0
9 -14 56 -35 0
9 -2 29 -36 0
9 -4 30 -37 0
9 -6 31 -38 0
9 -8 32 -39 0
9 -10 33 -40 0
9 -12 34 -41 0
9 -14 35 -42 0
9 -57 18 16 15 0
9 -65 25 23 22 0
9 -73 32 30 29 0
9 -81 39 37 36 0
9 -89 46 44 43 0
9 -97 53 51 50 0
9 -58 16 15 0
9 -58 -18 0
9 -66 23 22 0
9 -66 -25 0
9 -74 30 29 0
9 -74 -32 0
9 -82 37 36 0
9 -82 -39 0
9 -90 44 43 0
9 -90 -46 0
9 -98 51 50 0
9 -98 -53 0
9 -59 19 15 0
9 -59 -16 0
9 -67 26 22 0
9 -67 -23 0
9 -75 33 29 0
9 -75 -30 0
9 -83 40 36 0
9 -83 -37 0
9 -91 47 43 0
9 -91 -44 0
9 -99 54 50 0
9 -99 -51 0
9 -60 15 0
9 -60 -19 -16 0
9 -68 22 0
9 -68 -26 -23 0
9 -76 29 0
9 -76 -33 -30 0
9 -84 36 0
9 -84 -40 -37 0
9 -92 43 0
9 -92 -47 -44 0
9 -100 50 0
9 -100 -54 -51 0
9 -61 20 17 0
9 -61 -15 0
9 -69 27 24 0
9 -69 -22 0
9 -77 34 31 0
9 -77 -29 0
9 -85 41 38 0
9 -85 -36 0
9 -93 48 45 0
9 -93 -43 0
9 -101 55 52 0
9 -101 -50 0
9 -62 17 0
9 -62 -20 -15 0
9 -70 24 0
9 -70 -27 -22 0
9 -78 31 0
9 -78 -34 -29 0
9 -86 38 0
9 -86 -41 -36 0
9 -94 45 0
9 -94 -48 -43 0
9 -102 52 0
9 -102 -55 -50 0
9 -63 21 0
9 -63 -17 -15 0
9 -71 28 0
9 -71 -24 -22 0
9 -79 35 0
9 -79 -31 -29 0
9 -87 42 0
9 -87 -38 -36 0
9 -95 49 0
9 -95 -45 -43 0
9 -103 56 0
9 -103 -52 -50 0
9 -64 -21 -17 -15 0
9 -72 -28 -24 -22 0
9 -80 -35 -31 -29 0
9 -88 -42 -38 -36 0
9 -96 -49 -45 -43 0
9 -104 -56 -52 -50 0
9 57 -18 -16 -15 0
9 58 -16 -15 18 0
9 59 -19 -15 16 0
9 60 -15 19 16 0
9 61 -20 -17 15 0
9 62 -17 20 15 0
9 63 -21 17 15 0
9 64 21 17 15 0
9 65 -25 -23 -22 0
9 66 -23 -22 25 0
9 67 -26 -22 23 0
9 68 -22 26 23 0
9 69 -27 -24 22 0
9 70 -24 27 22 0
9 71 -28 24 22 0
9 72 28 24 22 0
9 73 -32 -30 -29 0
9 74 -30 -29 32 0
9 75 -33 -29 30 0
9 76 -29 33 30 0
9 77 -34 -31 29 0
9 78 -31 34 29 0
9 79 -35 31 29 0
9 80 35 31 29 0
9 81 -39 -37 -36 0
9 82 -37 -36 39 0
9 83 -40 -36 37 0
9 84 -36 40 37 0
9 85 -41 -38 36 0
9 86 -38 41 36 0
9 87 -42 38 36 0
9 88 42 38 36 0
9 89 -46 -44 -43 0
9 90 -44 -43 46 0
9 91 -47 -43 44 0
9 92 -43 47 44 0
9 93 -48 -45 43 0
9 94 -45 48 43 0
9 95 -49 45 43 0
9 96 49 45 43 0
9 97 -53 -51 -50 0
9 98 -51 -50 53 0
9 99 -54 -50 51 0
9 100 -50 54 51 0
9 101 -55 -52 50 0
9 102 -52 55 50 0
9 103 -56 52 50 0
9 104 56 52 50 0
9 -1 15 0
9 -1 -50 0
9 -2 15 0
9 -2 -36 0
9 -3 16 0
9 -3 -51 0
9 -4 16 0
9 -4 -37 0
9 -5 17 0
9 -5 -52 0
9 -6 17 0
9 -6 -38 0
9 -7 18 0
9 -7 -53 0
9 -8 18 0
9 -8 -39 0
9 -9 19 0
9 -9 -54 0
9 -10 19 0
9 -10 -40 0
9 -11 20 0
9 -11 -55 0
9 -12 20 0
9 -12 -41 0
9 -13 21 0
9 -13 -56 0
9 -14 21 0
9 -14 -42 0
9 105 -106 0
9 108 -109 0
9 111 -112 0
9 114 -115 0
9 117 -118 0
9 120 -121 0
9 123 -124 0
9 126 -127 0
9 -57 -105 129 0
9 -57 -106 130 0
9 -65 -105 132 0
9 -65 -106 133 0
9 -73 -105 135 0
9 -73 -106 136 0
9 -81 -105 138 0
9 -81 -106 139 0
9 -89 -105 141 0
9 -89 -106 142 0
9 -97 -105 144 0
9 -97 -106 145 0
9 -58 -108 129 0
9 -58 -109 130 0
9 -66 -108 132 0
9 -66 -109 133 0
9 -74 -108 135 0
9 -74 -109 136 0
9 -82 -108 138 0
9 -82 -109 139 0
9 -90 -108 141 0
9 -90 -109 142 0
9 -98 -108 144 0
9 -98 -109 145 0
9 -59 -111 129 0
9 -59 -112 130 0
9 -67 -111 132 0
9 -67 -112 133 0
9 -75 -111 135 0
9 -75 -112 136 0
9 -83 -111 138 0
9 -83 -112 139 0
9 -91 -111 141 0
9 -91 -112 142 0
9 -99 -111 144 0
9 -99 -112 145 0
9 -60 -114 129 0
9 -60 -115 130 0
9 -68 -114 132 0
9 -68 -115 133 0
9 -76 -114 135 0
9 -76 -115 136 0
9 -84 -114 138 0
9 -84 -115 139 0
9 -92 -114 141 0
9 -92 -115 142 0
9 -100 -114 144 0
9 -100 -115 145 0
9 -61 -117 129 0
9 -61 -118 130 0
9 -69 -117 132 0
9 -69 -118 133 0
9 -77 -117 135 0
9 -77 -118 136 0
9 -85 -117 138 0
9 -85 -118 139 0
9 -93 -117 141 0
9 -93 -118 142 0
9 -101 -117 144 0
9 -101 -118 145 0
9 -62 -120 129 0
9 -62 -121 130 0
9 -70 -120 132 0
9 -70 -121 133 0
9 -78 -120 135 0
9 -78 -121 136 0
9 -86 -120 138 0
9 -86 -121 139 0
9 -94 -120 141 0
9 -94 -121 142 0
9 -102 -120 144 0
9 -102 -121 145 0
9 -63 -123 129 0
9 -63 -124 130 0
9 -71 -123 132 0
9 -71 -124 133 0
9 -79 -123 135 0
9 -79 -124 136 0
9 -87 -123 138 0
9 -87 -124 139 0
9 -95 -123 141 0
9 -95 -124 142 0
9 -103 -123 144 0
9 -103 -124 145 0
9 -64 -126 129 0
9 -64 -127 130 0
9 -72 -126 132 0
9 -72 -127 133 0
9 -80 -126 135 0
9 -80 -127 136 0
9 -88 -126 138 0
9 -88 -127 139 0
9 -96 -126 141 0
9 -96 -127 142 0
9 -104 -126 144 0
9 -104 -127 145 0
9 -57 105 -129 0
9 -57 106 -130 0
9 -65 105 -132 0
9 -65 106 -133 0
9 -73 105 -135 0
9 -73 106 -136 0
9 -81 105 -138 0
9 -81 106 -139 0
9 -89 105 -141 0
9 -89 106 -142 0
9 -97 105 -144 0
9 -97 106 -145 0
9 -58 108 -129 0
9 -58 109 -130 0
9 -66 108 -132 0
9 -66 109 -133 0
9 -74 108 -135 0
9 -74 109 -136 0
9 -82 108 -138 0
9 -82 109 -139 0
9 -90 108 -141 0
9 -90 109 -142 0
9 -98 108 -144 0
9 -98 109 -145 0
9 -59 111 -129 0
9 -59 112 -130 0
9 -67 111 -132 0
9 -67 112 -133 0
9 -75 111 -135 0
9 -75 112 -136 0
9 -83 111 -138 0
9 -83 112 -139 0
9 -91 111 -141 0
9 -91 112 -142 0
9 -99 111 -144 0
9 -99 112 -145 0
9 -60 114 -129 0
9 -60 115 -130 0
9 -68 114 -132 0
9 -68 115 -133 0
9 -76 114 -135 0
9 -76 115 -136 0
9 -84 114 -138 0
9 -84 115 -139 0
9 -92 114 -141 0
9 -92 115 -142 0
9 -100 114 -144 0
9 -100 115 -145 0
9 -61 117 -129 0
9 -61 118 -130 0
9 -69 117 -132 0
9 -69 118 -133 0
9 -77 117 -135 0
9 -77 118 -136 0
9 -85 117 -138 0
9 -85 118 -139 0
9 -93 117 -141 0
9 -93 118 -142 0
9 -101 117 -144 0
9 -101 118 -145 0
9 -62 120 -129 0
9 -62 121 -130 0
9 -70 120 -132 0
9 -70 121 -133 0
9 -78 120 -135 0
9 -78 121 -136 0
9 -86 120 -138 0
9 -86 121 -139 0
9 -94 120 -141 0
9 -94 121 -142 0
9 -102 120 -144 0
9 -102 121 -145 0
9 -63 123 -129 0
9 -63 124 -130 0
9 -71 123 -132 0
9 -71 124 -133 0
9 -79 123 -135 0
9 -79 124 -136 0
9 -87 123 -138 0
9 -87 124 -139 0
9 -95 123 -141 0
9 -95 124 -142 0
9 -103 123 -144 0
9 -103 124 -145 0
9 -64 126 -129 0
9 -64 127 -130 0
9 -72 126 -132 0
9 -72 127 -133 0
9 -80 126 -135 0
9 -80 127 -136 0
9 -88 126 -138 0
9 -88 127 -139 0
9 -96 126 -141 0
9 -96 127 -142 0
9 -104 126 -144 0
9 -104 127 -145 0
9 129 0
9 133 0
9 -133 129 0
9 -136 129 132 0
9 -139 129 132 135 0
9 -142 129 132 135 138 0
9 -145 129 132 135 138 141 0
9 130 133 136 139 142 145 0
9 147 129 132 0
9 147 135 138 0
9 147 141 144 0
9 148 132 135 0
9 148 135 144 0
9 148 135 141 0
9 148 138 144 0
9 148 129 135 0
9 148 132 138 0
9 148 138 141 0
9 149 129 138 0
9 150 132 141 0
9 150 129 141 0
9 150 132 144 0
9 150 129 144 0
9 147 -130 -133 0
9 147 -136 -139 0
9 147 -142 -145 0
9 148 -133 -136 0
9 148 -136 -145 0
9 148 -136 -142 0
9 148 -139 -145 0
9 148 -130 -136 0
9 148 -133 -139 0
9 148 -139 -142 0
9 149 -130 -139 0
9 150 -133 -142 0
9 150 -130 -142 0
9 150 -133 -145 0
9 150 -130 -145 0
9 147 -129 -132 130 133 0
9 147 -135 -138 136 139 0
9 147 -141 -144 142 145 0
9 148 -132 -135 133 136 0
9 148 -135 -144 136 145 0
9 148 -135 -141 136 142 0
9 148 -138 -144 139 145 0
9 148 -129 -135 130 136 0
9 148 -132 -138 133 139 0
9 148 -138 -141 139 142 0
9 149 -129 -138 130 139 0
9 150 -132 -141 133 142 0
9 150 -129 -141 130 142 0
9 150 -132 -144 133 145 0
9 150 -129 -144 130 145 0
9 -151 -129 132 0
9 -151 -130 133 0
9 -151 -135 138 0
9 -151 -136 139 0
9 -151 -141 144 0
9 -151 -142 145 0
9 -152 -132 135 0
9 -152 -133 136 0
9 -152 -135 144 0
9 -152 -136 145 0
9 -152 -135 141 0
9 -152 -136 142 0
9 -152 -138 144 0
9 -152 -139 145 0
9 -152 -129 135 0
9 -152 -130 136 0
9 -152 -132 138 0
9 -152 -133 139 0
9 -152 -138 141 0
9 -152 -139 142 0
9 -153 -129 138 0
9 -153 -130 139 0
9 -154 -132 141 0
9 -154 -133 142 0
9 -154 -129 141 0
9 -154 -130 142 0
9 -154 -132 144 0
9 -154 -133 145 0
9 -154 -129 144 0
9 -154 -130 145 0
9 -151 129 -132 0
9 -151 130 -133 0
9 -151 135 -138 0
9 -151 136 -139 0
9 -151 141 -144 0
9 -151 142 -145 0
9 -152 132 -135 0
9 -152 133 -136 0
9 -152 135 -144 0
9 -152 136 -145 0
9 -152 135 -141 0
9 -152 136 -142 0
9 -152 138 -144 0
9 -152 139 -145 0
9 -152 129 -135 0
9 -152 130 -136 0
9 -152 132 -138 0
9 -152 133 -139 0
9 -152 138 -141 0
9 -152 139 -142 0
9 -153 129 -138 0
9 -153 130 -139 0
9 -154 132 -141 0
9 -154 133 -142 0
9 -154 129 -141 0
9 -154 130 -142 0
9 -154 132 -144 0
9 -154 133 -145 0
9 -154 129 -144 0
9 -154 130 -145 0
9 -148 147 0
9 -149 148 0
9 -150 149 0
9 -152 151 0
9 -153 152 0
9 -154 153 0
9 -151 147 0
9 -152 148 0
9 -153 149 0
9 -154 150 0
